p cnf 62 62
1 -2 0
2 -1 0
3 -4 0
4 -3 0
5 -6 0
6 -5 0
7 -8 0
8 -7 0
9 -10 0
10 -9 0
11 -12 0
12 -11 0
13 -14 0
14 -13 0
15 -16 0
16 -15 0
17 -18 0
18 -17 0
19 -20 0
20 -19 0
21 -22 0
22 -21 0
23 -24 0
24 -23 0
25 -26 0
26 -25 0
27 -28 0
28 -27 0
29 -30 0
30 -29 0
31 -32 0
32 -31 0
33 -34 0
34 -33 0
35 -36 0
36 -35 0
37 -38 0
38 -37 0
39 -40 0
40 -39 0
41 -42 0
42 -41 0
43 -44 0
44 -43 0
45 -46 0
46 -45 0
47 -48 0
48 -47 0
49 -50 0
50 -49 0
51 -52 0
52 -51 0
53 -54 0
54 -53 0
55 -56 0
56 -55 0
57 -58 0
58 -57 0
59 -60 0
60 -59 0
61 -62 0
62 -61 0
c 1 k!0
c 3 k!1
c 5 k!2
c 7 k!3
c 9 k!4
c 11 k!5
c 13 k!6
c 15 k!7
c 17 k!8
c 19 k!9
c 21 k!10
c 23 k!11
c 25 k!12
c 27 k!13
c 29 k!14
c 31 k!15
c 33 k!16
c 35 k!17
c 37 k!18
c 39 k!19
c 41 k!20
c 43 k!21
c 45 k!22
c 47 k!23
c 49 k!24
c 51 k!25
c 53 k!26
c 55 k!27
c 57 k!28
c 59 k!29
c 61 k!30
c 2 k!32
c 4 k!33
c 6 k!34
c 8 k!35
c 10 k!36
c 12 k!37
c 14 k!38
c 16 k!39
c 18 k!40
c 20 k!41
c 22 k!42
c 24 k!43
c 26 k!44
c 28 k!45
c 30 k!46
c 32 k!47
c 34 k!48
c 36 k!49
c 38 k!50
c 40 k!51
c 42 k!52
c 44 k!53
c 46 k!54
c 48 k!55
c 50 k!56
c 52 k!57
c 54 k!58
c 56 k!59
c 58 k!60
c 60 k!61
c 62 k!62